Route #1: 14 1 15 10 2 3 4 5 6 11 7 12 8 9 19 24 25 20 21 13 33 26 38 39 46 59 65 70 64 58 57 50 51 37 36 32 45 56 63 69 75 82 76 86 98 97 92 81 91 100 96 89 79 90 80 74 68 62 55 49 44 35 30 31 23 18 17 16 22 29 34 43 42 41 28 27 40 47 52 66 72 84 85 77 73 53 54 48 61 67 78 88 95 94 93 87 99 83 71 60
Cost 46218
